File : Instances/p69
Use 143 s

26100

1 0 0 0 1 1 0 1 0 0 0 1 0 1 0 0 0 0 0 1 1 1 0 0 1 0 0 0 1 0 
7 19 21 24 21 11 21 28 24 28 4 28 13 13 28 7 13 20 24 0 11 21 5 24 5 11 24 28 4 21 19 19 4 21 28 19 20 20 24 21 7 20 19 4 13 19 13 21 19 20 24 24 21 21 20 19 11 20 7 7 4 0 7 20 13 11 5 19 28 11 7 11 19 20 5 5 20 5 20 24 5 0 19 7 4 13 19 5 24 7 28 19 7 11 0 13 11 11 0 28 28 21 11 7 4 0 4 24 24 13 19 4 11 11 11 20 28 7 0 20 19 11 0 19 4 21 21 11 19 0 28 21 11 20 5 20 13 13 28 0 11 24 11 11 7 5 24 21 24 7 24 0 5 0 13 11 5 21 13 13 13 0 13 0 5 0 5 4 13 21 5 20 19 20 4 21 0 20 4 20 5 21 21 19 11 20 28 13 0 21 21 21 19 4 7 11 7 21 5 19 
